(set-logic QF_S)
(declare-fun var0 () String)
(declare-fun var1 () String)
(declare-fun var2 () String)
(declare-fun var3 () String)
(declare-fun var4 () Int)
(declare-fun var5 () Int)
(declare-fun var6 () Int)
(declare-fun var7 () Int)
(assert (str.in.re (str.at (str.replace var0 var1 var2) (str.to.int var3)) (re.+ (re.* re.allchar))))
(assert (< var4 var5))
(assert (str.prefixof var0 var2))
(assert (str.suffixof (str.substr var3 var6 var7) (str.substr var1 var5 var7)))
(check-sat)